interdiction/MCDM/NO_CORR/GEN_FROM_60/13_ITEMS_1000_GEN/K5013W17.KNP.mps
NAME          BLANK   
ROWS
 N  OBJROW
 L  R0000000
COLUMNS
    C0000000  OBJROW     -937.         R0000000  822.        
    C0000001  OBJROW     -446.         R0000000  213.        
    C0000002  OBJROW     -285.         R0000000  828.        
    C0000003  OBJROW     -918.         R0000000  595.        
    C0000004  OBJROW     -138.         R0000000  127.        
    C0000005  OBJROW     -115.         R0000000  254.        
    C0000006  OBJROW     -274.         R0000000  604.        
    C0000007  OBJROW     -903.         R0000000  67.         
    C0000008  OBJROW     -610.         R0000000  70.         
    C0000009  OBJROW     -857.         R0000000  204.        
    C0000010  OBJROW     -414.         R0000000  411.        
    C0000011  OBJROW     -880.         R0000000  185.        
    C0000012  OBJROW     -121.         R0000000  16.         
RHS
    RHS       R0000000  13735.      
BOUNDS
 BV BOUND     C0000000  1.          
 BV BOUND     C0000001  1.          
 BV BOUND     C0000002  1.          
 BV BOUND     C0000003  1.          
 BV BOUND     C0000004  1.          
 BV BOUND     C0000005  1.          
 BV BOUND     C0000006  1.          
 BV BOUND     C0000007  1.          
 BV BOUND     C0000008  1.          
 BV BOUND     C0000009  1.          
 BV BOUND     C0000010  1.          
 BV BOUND     C0000011  1.          
 BV BOUND     C0000012  1.          
ENDATA
