data/MCDM/NO_CORR/GEN_FROM_60/13_ITEMS_1000_GEN/K5013W17.KNP.txt
N 13
M 14
LC 13
LC 14
LC 15
LC 16
LC 17
LC 18
LC 19
LC 20
LC 21
LC 22
LC 23
LC 24
LC 25
LR 1
LR 2
LR 3
LR 4
LR 5
LR 6
LR 7
LR 8
LR 9
LR 10
LR 11
LR 12
LR 13
LR 14
LO -937
LO -446
LO -285
LO -918
LO -138
LO -115
LO -274
LO -903
LO -610
LO -857
LO -414
LO -880
LO -121
OS 1
IC 43
IC 28
IC 975
IC 133
IC 275
IC 873
IC 711
IC 562
IC 51
IC 147
IC 918
IC 660
IC 839
IB 3108
